objective value:                                11585
t_x_6                                               1 	(obj:13)
t_x_8                                               1 	(obj:55)
t_x_11                                              1 	(obj:14)
t_x_15                                              1 	(obj:37)
t_x_16                                              1 	(obj:8)
t_x_17                                              1 	(obj:36)
t_x_19                                              1 	(obj:36)
t_x_20                                              1 	(obj:6)
t_x_21                                              1 	(obj:30)
t_x_24                                              1 	(obj:22)
t_x_26                                              1 	(obj:24)
t_x_28                                              1 	(obj:27)
t_x_29                                              1 	(obj:22)
t_x_33                                              1 	(obj:2)
t_x_38                                              1 	(obj:25)
t_x_41                                              1 	(obj:46)
t_x_44                                              1 	(obj:52)
t_x_45                                              1 	(obj:3)
t_x_46                                              1 	(obj:32)
t_x_48                                              1 	(obj:25)
t_x_52                                              1 	(obj:12)
t_x_54                                              1 	(obj:0)
t_x_56                                              1 	(obj:8)
t_x_58                                              1 	(obj:26)
t_x_59                                              1 	(obj:7)
t_x_60                                              1 	(obj:40)
t_x_64                                              1 	(obj:33)
t_x_65                                              1 	(obj:5)
t_x_66                                              1 	(obj:11)
t_x_68                                              1 	(obj:16)
t_x_69                                              1 	(obj:23)
t_x_71                                              1 	(obj:27)
t_x_75                                              1 	(obj:17)
t_x_77                                              1 	(obj:31)
t_x_79                                              1 	(obj:5)
t_x_80                                              1 	(obj:4)
t_x_81                                              1 	(obj:61)
t_x_84                                              1 	(obj:22)
t_x_89                                              1 	(obj:63)
t_x_90                                              1 	(obj:0)
t_x_92                                              1 	(obj:6)
t_x_93                                              1 	(obj:23)
t_x_100                                             1 	(obj:13)
t_x_101                                             1 	(obj:12)
t_x_106                                             1 	(obj:32)
t_x_111                                             1 	(obj:18)
t_x_119                                             1 	(obj:1)
t_x_120                                             1 	(obj:21)
t_x_123                                             1 	(obj:23)
t_x_125                                             1 	(obj:4)
t_x_135                                             1 	(obj:55)
t_x_137                                             1 	(obj:8)
t_x_153                                             1 	(obj:6)
t_x_154                                             1 	(obj:17)
t_x_157                                             1 	(obj:9)
t_x_161                                             1 	(obj:48)
t_x_163                                             1 	(obj:21)
t_x_165                                             1 	(obj:19)
t_x_168                                             1 	(obj:13)
t_x_179                                             1 	(obj:2)
t_x_180                                             1 	(obj:8)
t_x_181                                             1 	(obj:5)
t_x_189                                             1 	(obj:26)
t_x_192                                             1 	(obj:6)
t_x_193                                             1 	(obj:30)
t_x_198                                             1 	(obj:6)
t_x_201                                             1 	(obj:11)
t_x_203                                             1 	(obj:17)
t_x_212                                             1 	(obj:33)
t_x_216                                             1 	(obj:25)
t_x_220                                             1 	(obj:33)
t_x_223                                             1 	(obj:27)
t_x_224                                             1 	(obj:4)
t_x_227                                             1 	(obj:24)
t_x_231                                             1 	(obj:6)
t_x_232                                             1 	(obj:36)
t_x_237                                             1 	(obj:34)
t_x_250                                             1 	(obj:0)
t_x_252                                             1 	(obj:23)
t_x_256                                             1 	(obj:5)
t_x_257                                             1 	(obj:0)
t_x_259                                             1 	(obj:19)
t_x_267                                             1 	(obj:18)
t_x_269                                             1 	(obj:8)
t_x_273                                             1 	(obj:12)
t_x_274                                             1 	(obj:1)
t_x_276                                             1 	(obj:2)
t_x_277                                             1 	(obj:13)
t_x_279                                             1 	(obj:2)
t_x_282                                             1 	(obj:14)
t_x_283                                             1 	(obj:19)
t_x_284                                             1 	(obj:18)
t_x_286                                             1 	(obj:12)
t_x_296                                             1 	(obj:5)
t_x_297                                             1 	(obj:44)
t_x_300                                             1 	(obj:7)
t_x_302                                             1 	(obj:15)
t_x_308                                             1 	(obj:4)
t_x_312                                             1 	(obj:23)
t_x_314                                             1 	(obj:36)
t_x_316                                             1 	(obj:38)
t_x_319                                             1 	(obj:27)
t_x_322                                             1 	(obj:20)
t_x_323                                             1 	(obj:8)
t_x_324                                             1 	(obj:52)
t_x_326                                             1 	(obj:2)
t_x_328                                             1 	(obj:14)
t_x_332                                             1 	(obj:62)
t_x_334                                             1 	(obj:10)
t_x_335                                             1 	(obj:13)
t_x_347                                             1 	(obj:11)
t_x_350                                             1 	(obj:30)
t_x_351                                             1 	(obj:7)
t_x_352                                             1 	(obj:1)
t_x_357                                             1 	(obj:10)
t_x_358                                             1 	(obj:34)
t_x_359                                             1 	(obj:6)
t_x_361                                             1 	(obj:10)
t_x_375                                             1 	(obj:1)
t_x_379                                             1 	(obj:13)
t_x_383                                             1 	(obj:37)
t_x_387                                             1 	(obj:13)
t_x_389                                             1 	(obj:21)
t_x_391                                             1 	(obj:12)
t_x_393                                             1 	(obj:0)
t_x_396                                             1 	(obj:13)
t_x_398                                             1 	(obj:11)
t_x_402                                             1 	(obj:26)
t_x_403                                             1 	(obj:15)
t_x_413                                             1 	(obj:39)
t_x_415                                             1 	(obj:32)
t_x_423                                             1 	(obj:18)
t_x_427                                             1 	(obj:8)
t_x_429                                             1 	(obj:9)
t_x_431                                             1 	(obj:50)
t_x_436                                             1 	(obj:0)
t_x_439                                             1 	(obj:17)
t_x_440                                             1 	(obj:9)
t_x_446                                             1 	(obj:10)
t_x_448                                             1 	(obj:9)
t_x_454                                             1 	(obj:22)
t_x_456                                             1 	(obj:30)
t_x_459                                             1 	(obj:3)
t_x_466                                             1 	(obj:43)
t_x_469                                             1 	(obj:28)
t_x_474                                             1 	(obj:22)
t_x_479                                             1 	(obj:12)
t_x_480                                             1 	(obj:7)
t_x_482                                             1 	(obj:28)
t_x_484                                             1 	(obj:19)
t_x_486                                             1 	(obj:19)
t_x_494                                             1 	(obj:7)
t_x_495                                             1 	(obj:14)
t_x_497                                             1 	(obj:8)
t_x_499                                             1 	(obj:0)
t_x_500                                             1 	(obj:27)
t_x_504                                             1 	(obj:30)
t_x_507                                             1 	(obj:22)
t_x_511                                             1 	(obj:7)
t_x_517                                             1 	(obj:24)
t_x_522                                             1 	(obj:13)
t_x_530                                             1 	(obj:19)
t_x_535                                             1 	(obj:14)
t_x_538                                             1 	(obj:22)
t_x_541                                             1 	(obj:23)
t_x_544                                             1 	(obj:18)
t_x_546                                             1 	(obj:7)
t_x_547                                             1 	(obj:4)
t_x_550                                             1 	(obj:11)
t_x_552                                             1 	(obj:65)
t_x_553                                             1 	(obj:10)
t_x_555                                             1 	(obj:4)
t_x_559                                             1 	(obj:54)
t_x_562                                             1 	(obj:11)
t_x_566                                             1 	(obj:9)
t_x_572                                             1 	(obj:14)
t_x_573                                             1 	(obj:11)
t_x_575                                             1 	(obj:16)
t_x_577                                             1 	(obj:4)
t_x_587                                             1 	(obj:15)
t_x_588                                             1 	(obj:37)
t_x_592                                             1 	(obj:17)
t_x_593                                             1 	(obj:3)
t_x_594                                             1 	(obj:14)
t_x_601                                             1 	(obj:23)
t_x_602                                             1 	(obj:49)
t_x_603                                             1 	(obj:4)
t_x_606                                             1 	(obj:39)
t_x_608                                             1 	(obj:24)
t_x_627                                             1 	(obj:57)
t_x_632                                             1 	(obj:3)
t_x_634                                             1 	(obj:24)
t_x_637                                             1 	(obj:0)
t_x_643                                             1 	(obj:7)
t_x_646                                             1 	(obj:1)
t_x_647                                             1 	(obj:11)
t_x_650                                             1 	(obj:34)
t_x_651                                             1 	(obj:41)
t_x_658                                             1 	(obj:5)
t_x_659                                             1 	(obj:18)
t_x_663                                             1 	(obj:22)
t_x_664                                             1 	(obj:8)
t_x_665                                             1 	(obj:34)
t_x_668                                             1 	(obj:3)
t_x_675                                             1 	(obj:2)
t_x_677                                             1 	(obj:28)
t_x_679                                             1 	(obj:41)
t_x_681                                             1 	(obj:30)
t_x_682                                             1 	(obj:44)
t_x_685                                             1 	(obj:19)
t_x_686                                             1 	(obj:21)
t_x_687                                             1 	(obj:1)
t_x_689                                             1 	(obj:3)
t_x_692                                             1 	(obj:6)
t_x_699                                             1 	(obj:39)
t_x_701                                             1 	(obj:5)
t_x_704                                             1 	(obj:1)
t_x_717                                             1 	(obj:34)
t_x_718                                             1 	(obj:5)
t_x_719                                             1 	(obj:8)
t_x_722                                             1 	(obj:39)
t_x_726                                             1 	(obj:33)
t_x_730                                             1 	(obj:8)
t_x_732                                             1 	(obj:39)
t_x_740                                             1 	(obj:28)
t_x_744                                             1 	(obj:3)
t_x_746                                             1 	(obj:10)
t_x_750                                             1 	(obj:10)
t_x_757                                             1 	(obj:4)
t_x_759                                             1 	(obj:2)
t_x_760                                             1 	(obj:1)
t_x_762                                             1 	(obj:0)
t_x_766                                             1 	(obj:21)
t_x_771                                             1 	(obj:56)
t_x_778                                             1 	(obj:7)
t_x_784                                             1 	(obj:16)
t_x_786                                             1 	(obj:4)
t_x_788                                             1 	(obj:16)
t_x_790                                             1 	(obj:6)
t_x_792                                             1 	(obj:2)
t_x_793                                             1 	(obj:21)
t_x_798                                             1 	(obj:3)
t_x_801                                             1 	(obj:21)
t_x_809                                             1 	(obj:24)
t_x_817                                             1 	(obj:17)
t_x_824                                             1 	(obj:33)
t_x_826                                             1 	(obj:4)
t_x_834                                             1 	(obj:23)
t_x_837                                             1 	(obj:18)
t_x_843                                             1 	(obj:13)
t_x_849                                             1 	(obj:30)
t_x_851                                             1 	(obj:14)
t_x_853                                             1 	(obj:40)
t_x_854                                             1 	(obj:0)
t_x_859                                             1 	(obj:41)
t_x_861                                             1 	(obj:10)
t_x_866                                             1 	(obj:17)
t_x_868                                             1 	(obj:14)
t_x_869                                             1 	(obj:23)
t_x_871                                             1 	(obj:7)
t_x_873                                             1 	(obj:13)
t_x_878                                             1 	(obj:16)
t_x_893                                             1 	(obj:21)
t_x_896                                             1 	(obj:10)
t_x_902                                             1 	(obj:4)
t_x_904                                             1 	(obj:33)
t_x_906                                             1 	(obj:34)
t_x_908                                             1 	(obj:21)
t_x_917                                             1 	(obj:14)
t_x_918                                             1 	(obj:10)
t_x_919                                             1 	(obj:7)
t_x_922                                             1 	(obj:27)
t_x_926                                             1 	(obj:28)
t_x_933                                             1 	(obj:13)
t_x_936                                             1 	(obj:12)
t_x_943                                             1 	(obj:17)
t_x_944                                             1 	(obj:28)
t_x_949                                             1 	(obj:45)
t_x_953                                             1 	(obj:28)
t_x_955                                             1 	(obj:45)
t_x_956                                             1 	(obj:21)
t_x_957                                             1 	(obj:49)
t_x_965                                             1 	(obj:13)
t_x_972                                             1 	(obj:8)
t_x_974                                             1 	(obj:0)
t_x_975                                             1 	(obj:17)
t_x_976                                             1 	(obj:12)
t_x_983                                             1 	(obj:31)
t_x_992                                             1 	(obj:47)
t_x_995                                             1 	(obj:9)
t_x_1003                                            1 	(obj:17)
t_x_1005                                            1 	(obj:5)
t_x_1006                                            1 	(obj:39)
t_x_1009                                            1 	(obj:31)
t_x_1010                                            1 	(obj:8)
t_x_1011                                            1 	(obj:40)
t_x_1013                                            1 	(obj:28)
t_x_1019                                            1 	(obj:17)
t_x_1022                                            1 	(obj:22)
t_x_1024                                            1 	(obj:6)
t_x_1031                                            1 	(obj:11)
t_x_1034                                            1 	(obj:46)
t_x_1040                                            1 	(obj:8)
t_x_1042                                            1 	(obj:13)
t_x_1048                                            1 	(obj:34)
t_x_1050                                            1 	(obj:2)
t_x_1054                                            1 	(obj:20)
t_x_1055                                            1 	(obj:4)
t_x_1063                                            1 	(obj:24)
t_x_1064                                            1 	(obj:14)
t_x_1067                                            1 	(obj:21)
t_x_1068                                            1 	(obj:41)
t_x_1072                                            1 	(obj:22)
t_x_1076                                            1 	(obj:72)
t_x_1077                                            1 	(obj:5)
t_x_1079                                            1 	(obj:20)
t_x_1081                                            1 	(obj:26)
t_x_1087                                            1 	(obj:19)
t_x_1095                                            1 	(obj:3)
t_x_1100                                            1 	(obj:5)
t_x_1105                                            1 	(obj:2)
t_x_1108                                            1 	(obj:8)
t_x_1115                                            1 	(obj:36)
t_x_1118                                            1 	(obj:1)
t_x_1125                                            1 	(obj:51)
t_x_1133                                            1 	(obj:62)
t_x_1134                                            1 	(obj:6)
t_x_1135                                            1 	(obj:31)
t_x_1136                                            1 	(obj:22)
t_x_1138                                            1 	(obj:23)
t_x_1139                                            1 	(obj:16)
t_x_1152                                            1 	(obj:47)
t_x_1154                                            1 	(obj:10)
t_x_1161                                            1 	(obj:2)
t_x_1168                                            1 	(obj:34)
t_x_1170                                            1 	(obj:29)
t_x_1172                                            1 	(obj:20)
t_x_1174                                            1 	(obj:5)
t_x_1178                                            1 	(obj:18)
t_x_1183                                            1 	(obj:1)
t_x_1184                                            1 	(obj:20)
t_x_1189                                            1 	(obj:22)
t_x_1191                                            1 	(obj:0)
t_x_1192                                            1 	(obj:34)
t_x_1196                                            1 	(obj:7)
t_x_1197                                            1 	(obj:14)
t_x_1203                                            1 	(obj:15)
t_x_1205                                            1 	(obj:11)
t_x_1207                                            1 	(obj:13)
t_x_1208                                            1 	(obj:13)
t_x_1210                                            1 	(obj:25)
t_x_1217                                            1 	(obj:18)
t_x_1218                                            1 	(obj:33)
t_x_1221                                            1 	(obj:11)
t_x_1227                                            1 	(obj:10)
t_x_1236                                            1 	(obj:17)
t_x_1240                                            1 	(obj:6)
t_x_1246                                            1 	(obj:11)
t_x_1251                                            1 	(obj:30)
t_x_1253                                            1 	(obj:16)
t_x_1254                                            1 	(obj:86)
t_x_1255                                            1 	(obj:12)
t_x_1259                                            1 	(obj:27)
t_x_1263                                            1 	(obj:2)
t_x_1264                                            1 	(obj:0)
t_x_1268                                            1 	(obj:10)
t_x_1275                                            1 	(obj:14)
t_x_1277                                            1 	(obj:19)
t_x_1278                                            1 	(obj:47)
t_x_1283                                            1 	(obj:7)
t_x_1293                                            1 	(obj:38)
t_x_1299                                            1 	(obj:22)
t_x_1300                                            1 	(obj:0)
t_x_1301                                            1 	(obj:22)
t_x_1304                                            1 	(obj:9)
t_x_1306                                            1 	(obj:4)
t_x_1309                                            1 	(obj:14)
t_x_1311                                            1 	(obj:27)
t_x_1313                                            1 	(obj:19)
t_x_1314                                            1 	(obj:19)
t_x_1321                                            1 	(obj:4)
t_x_1322                                            1 	(obj:1)
t_x_1324                                            1 	(obj:25)
t_x_1326                                            1 	(obj:4)
t_x_1329                                            1 	(obj:11)
t_x_1331                                            1 	(obj:5)
t_x_1334                                            1 	(obj:29)
t_x_1338                                            1 	(obj:40)
t_x_1339                                            1 	(obj:21)
t_x_1340                                            1 	(obj:9)
t_x_1341                                            1 	(obj:61)
t_x_1343                                            1 	(obj:8)
t_x_1346                                            1 	(obj:8)
t_x_1348                                            1 	(obj:63)
t_x_1352                                            1 	(obj:5)
t_x_1357                                            1 	(obj:34)
t_x_1360                                            1 	(obj:10)
t_x_1367                                            1 	(obj:2)
t_x_1369                                            1 	(obj:53)
t_x_1370                                            1 	(obj:14)
t_x_1372                                            1 	(obj:22)
t_x_1376                                            1 	(obj:28)
t_x_1377                                            1 	(obj:59)
t_x_1379                                            1 	(obj:56)
t_x_1382                                            1 	(obj:30)
t_x_1385                                            1 	(obj:34)
t_x_1387                                            1 	(obj:4)
t_x_1391                                            1 	(obj:21)
t_x_1392                                            1 	(obj:39)
t_x_1395                                            1 	(obj:26)
t_x_1401                                            1 	(obj:26)
t_x_1402                                            1 	(obj:15)
t_x_1403                                            1 	(obj:34)
t_x_1406                                            1 	(obj:32)
t_x_1408                                            1 	(obj:33)
t_x_1410                                            1 	(obj:19)
t_x_1412                                            1 	(obj:50)
t_x_1413                                            1 	(obj:7)
t_x_1416                                            1 	(obj:5)
t_x_1417                                            1 	(obj:25)
t_x_1425                                            1 	(obj:23)
t_x_1426                                            1 	(obj:35)
t_x_1428                                            1 	(obj:25)
t_x_1431                                            1 	(obj:6)
t_x_1435                                            1 	(obj:6)
t_x_1436                                            1 	(obj:30)
t_x_1439                                            1 	(obj:20)
t_x_1453                                            1 	(obj:26)
t_x_1455                                            1 	(obj:43)
t_x_1457                                            1 	(obj:2)
t_x_1462                                            1 	(obj:26)
t_x_1464                                            1 	(obj:39)
t_x_1466                                            1 	(obj:55)
t_x_1467                                            1 	(obj:25)
t_x_1470                                            1 	(obj:30)
t_x_1472                                            1 	(obj:42)
t_x_1474                                            1 	(obj:50)
t_x_1479                                            1 	(obj:14)
t_x_1481                                            1 	(obj:10)
t_x_1486                                            1 	(obj:23)
t_x_1492                                            1 	(obj:34)
t_x_1501                                            1 	(obj:49)
t_x_1505                                            1 	(obj:13)
t_x_1507                                            1 	(obj:18)
t_x_1508                                            1 	(obj:17)
t_x_1510                                            1 	(obj:5)
t_x_1511                                            1 	(obj:54)
t_x_1514                                            1 	(obj:10)
t_x_1515                                            1 	(obj:5)
t_x_1521                                            1 	(obj:18)
t_x_1528                                            1 	(obj:8)
t_x_1529                                            1 	(obj:1)
t_x_1535                                            1 	(obj:21)
t_x_1543                                            1 	(obj:28)
t_x_1544                                            1 	(obj:21)
t_x_1548                                            1 	(obj:10)
t_x_1550                                            1 	(obj:6)
t_x_1552                                            1 	(obj:1)
t_x_1553                                            1 	(obj:27)
t_x_1558                                            1 	(obj:31)
t_x_1560                                            1 	(obj:41)
t_x_1563                                            1 	(obj:13)
t_x_1565                                            1 	(obj:42)
t_x_1570                                            1 	(obj:21)
t_x_1575                                            1 	(obj:8)
t_x_1577                                            1 	(obj:27)
t_x_1579                                            1 	(obj:21)
t_x_1580                                            1 	(obj:16)
t_x_1581                                            1 	(obj:4)
t_x_1583                                            1 	(obj:9)
t_x_1587                                            1 	(obj:8)
t_x_1598                                            1 	(obj:3)
t_x_1602                                            1 	(obj:43)
t_x_1605                                            1 	(obj:16)
t_x_1606                                            1 	(obj:7)
t_x_1619                                            1 	(obj:26)
t_x_1621                                            1 	(obj:9)
t_x_1630                                            1 	(obj:16)
t_x_1637                                            1 	(obj:0)
t_x_1638                                            1 	(obj:28)
t_x_1641                                            1 	(obj:25)
t_x_1644                                            1 	(obj:67)
t_x_1647                                            1 	(obj:1)
t_x_1650                                            1 	(obj:4)
t_x_1654                                            1 	(obj:7)
t_x_1657                                            1 	(obj:9)
t_x_1659                                            1 	(obj:27)
t_x_1663                                            1 	(obj:37)
t_x_1664                                            1 	(obj:29)
t_x_1673                                            1 	(obj:0)
t_x_1674                                            1 	(obj:29)
t_x_1675                                            1 	(obj:10)
t_x_1677                                            1 	(obj:29)
t_x_1681                                            1 	(obj:6)
t_x_1682                                            1 	(obj:7)
t_x_1686                                            1 	(obj:2)
t_x_1688                                            1 	(obj:26)
t_x_1690                                            1 	(obj:37)
t_x_1691                                            1 	(obj:4)
t_x_1692                                            1 	(obj:31)
t_x_1698                                            1 	(obj:4)
t_x_1699                                            1 	(obj:25)
t_x_1700                                            1 	(obj:30)
t_x_1709                                            1 	(obj:38)
t_x_1711                                            1 	(obj:13)
t_x_1712                                            1 	(obj:37)
t_x_1717                                            1 	(obj:4)
t_x_1718                                            1 	(obj:18)
t_x_1721                                            1 	(obj:5)
t_x_1724                                            1 	(obj:19)
t_x_1726                                            1 	(obj:2)
t_x_1727                                            1 	(obj:19)
t_x_1733                                            1 	(obj:4)
t_x_1738                                            1 	(obj:12)
t_x_1743                                            1 	(obj:7)
t_x_1744                                            1 	(obj:35)
t_x_1746                                            1 	(obj:12)
t_x_1750                                            1 	(obj:1)
t_x_1755                                            1 	(obj:29)
t_x_1758                                            1 	(obj:28)
t_x_1760                                            1 	(obj:19)
t_x_1767                                            1 	(obj:9)
t_x_1768                                            1 	(obj:13)
t_x_1775                                            1 	(obj:17)
t_x_1782                                            1 	(obj:2)
t_x_1790                                            1 	(obj:42)
t_x_1791                                            1 	(obj:22)
t_x_1794                                            1 	(obj:50)
t_x_1795                                            1 	(obj:11)
t_x_1797                                            1 	(obj:29)
t_x_1800                                            1 	(obj:29)
t_x_1801                                            1 	(obj:40)
t_x_1811                                            1 	(obj:25)
t_x_1814                                            1 	(obj:31)
t_x_1818                                            1 	(obj:13)
t_x_1819                                            1 	(obj:9)
t_x_1821                                            1 	(obj:30)
t_x_1827                                            1 	(obj:5)
t_x_1828                                            1 	(obj:30)
t_x_1833                                            1 	(obj:6)
t_x_1838                                            1 	(obj:13)
t_x_1843                                            1 	(obj:12)
t_x_1846                                            1 	(obj:1)
t_x_1849                                            1 	(obj:33)
t_x_1850                                            1 	(obj:10)
t_x_1860                                            1 	(obj:3)
t_x_1861                                            1 	(obj:13)
t_x_1864                                            1 	(obj:38)
t_x_1865                                            1 	(obj:5)
t_x_1867                                            1 	(obj:54)
t_x_1870                                            1 	(obj:18)
t_x_1875                                            1 	(obj:5)
t_x_1879                                            1 	(obj:11)
t_x_1883                                            1 	(obj:20)
t_x_1888                                            1 	(obj:47)
t_x_1894                                            1 	(obj:11)
t_x_1898                                            1 	(obj:15)
t_x_1900                                            1 	(obj:32)
t_x_1903                                            1 	(obj:34)
t_x_1904                                            1 	(obj:42)
t_x_1905                                            1 	(obj:3)
t_x_1907                                            1 	(obj:10)
t_x_1909                                            1 	(obj:54)
t_x_1910                                            1 	(obj:14)
t_x_1916                                            1 	(obj:13)
t_x_1921                                            1 	(obj:22)
t_x_1924                                            1 	(obj:0)
t_x_1928                                            1 	(obj:13)
t_x_1930                                            1 	(obj:12)
t_x_1932                                            1 	(obj:22)
t_x_1934                                            1 	(obj:9)
t_x_1936                                            1 	(obj:23)
t_x_1939                                            1 	(obj:37)
t_x_1941                                            1 	(obj:4)
t_x_1942                                            1 	(obj:24)
t_x_1945                                            1 	(obj:7)
t_x_1947                                            1 	(obj:25)
t_x_1949                                            1 	(obj:4)
t_x_1953                                            1 	(obj:19)
t_x_1956                                            1 	(obj:35)
t_x_1959                                            1 	(obj:2)
t_x_1964                                            1 	(obj:13)
t_x_1965                                            1 	(obj:3)
t_x_1966                                            1 	(obj:84)
t_x_1968                                            1 	(obj:35)
t_x_1972                                            1 	(obj:3)
t_x_1973                                            1 	(obj:1)
t_x_1979                                            1 	(obj:18)
t_x_1983                                            1 	(obj:31)
t_x_1988                                            1 	(obj:16)
t_x_1991                                            1 	(obj:15)
t_x_1994                                            1 	(obj:7)
t_x_1997                                            1 	(obj:3)
